NAME : zqloutput/eax-hard-simple-rescaleandround/50-82.tsp
TYPE : TSP
DIMENSION : 50
EDGE_WEIGHT_TYPE : EUC_2D
NODE_COORD_SECTION
1 712158 889291
2 577955 722370
3 164652 839379
4 486657 327278
5 443860 539456
6 803865 353675
7 593081 991742
8 10226 591061
9 222980 318142
10 63581 193155
11 666554 775906
12 592188 473793
13 820023 37719
14 412872 958469
15 442717 886605
16 339111 496952
17 637461 268909
18 867020 240465
19 706691 638298
20 383465 617196
21 517461 151753
22 388085 908816
23 181724 378943
24 262183 505996
25 839770 584841
26 726746 543424
27 754057 549516
28 636532 686448
29 992808 544236
30 945117 969104
31 305387 729884
32 673438 732909
33 764611 876232
34 267084 555140
35 353727 995865
36 8311 885079
37 235867 362761
38 504988 825662
39 456826 339033
40 623954 29502
41 626549 802115
42 950564 401515
43 408996 83999
44 899363 321013
45 318034 217834
46 66466 845481
47 501178 395839
48 196722 457900
49 861419 879522
50 491954 786678
EOF
